HFSDDW
15	8	4
0	71	1	83	2	58	3	55
0	16	1	61	2	86	3	14
0	55	1	14	2	98	3	82
0	81	1	55	2	54	3	31
0	13	1	73	2	22	3	60
0	86	1	63	2	96	3	10
0	45	1	85	2	27	3	90
0	43	1	47	2	87	3	23
0	2	1	80	2	10	3	39
0	33	1	94	2	61	3	39
0	47	1	66	2	23	3	93
0	39	1	16	2	62	3	44
0	36	1	8	2	60	3	25
0	18	1	33	2	44	3	8
0	86	1	49	2	10	3	31
LBCmax: 473
RELDUE
-1	364	2	4
-1	422	1	7
-1	398	3	3
-1	339	8	5
-1	356	4	8
-1	403	6	1
-1	408	7	4
-1	331	1	5
-1	375	8	8
-1	345	3	1
-1	425	5	9
-1	347	2	7
-1	342	6	4
-1	410	6	9
-1	343	2	1
DDW
346	382
414	430
382	414
332	346
345	367
375	431
371	445
305	357
341	409
342	348
400	450
330	364
328	356
398	422
319	367
